language Essence 1.3
$ generated by bacp-gen.pl with seed 1058338582
$ edge probability 0.0694
$ course loads in range 3..8
letting n_courses be 124
letting n_periods be 30
letting load_per_period_lb be 8
letting load_per_period_ub be 47
letting courses_per_period_lb be 4
letting courses_per_period_ub be 9
letting course_load be function(
1 --> 6,
2 --> 5,
3 --> 4,
4 --> 3,
5 --> 4,
6 --> 7,
7 --> 3,
8 --> 6,
9 --> 3,
10 --> 4,
11 --> 4,
12 --> 4,
13 --> 8,
14 --> 3,
15 --> 3,
16 --> 6,
17 --> 8,
18 --> 6,
19 --> 7,
20 --> 4,
21 --> 4,
22 --> 5,
23 --> 4,
24 --> 7,
25 --> 6,
26 --> 4,
27 --> 7,
28 --> 6,
29 --> 3,
30 --> 8,
31 --> 5,
32 --> 6,
33 --> 3,
34 --> 6,
35 --> 7,
36 --> 4,
37 --> 5,
38 --> 4,
39 --> 5,
40 --> 8,
41 --> 7,
42 --> 7,
43 --> 4,
44 --> 3,
45 --> 6,
46 --> 5,
47 --> 3,
48 --> 5,
49 --> 3,
50 --> 4,
51 --> 3,
52 --> 8,
53 --> 7,
54 --> 4,
55 --> 4,
56 --> 5,
57 --> 5,
58 --> 6,
59 --> 3,
60 --> 7,
61 --> 7,
62 --> 5,
63 --> 4,
64 --> 7,
65 --> 7,
66 --> 3,
67 --> 7,
68 --> 5,
69 --> 8,
70 --> 6,
71 --> 6,
72 --> 4,
73 --> 5,
74 --> 3,
75 --> 7,
76 --> 8,
77 --> 7,
78 --> 4,
79 --> 8,
80 --> 5,
81 --> 8,
82 --> 7,
83 --> 8,
84 --> 3,
85 --> 6,
86 --> 6,
87 --> 6,
88 --> 6,
89 --> 7,
90 --> 5,
91 --> 5,
92 --> 8,
93 --> 4,
94 --> 5,
95 --> 4,
96 --> 4,
97 --> 6,
98 --> 7,
99 --> 4,
100 --> 4,
101 --> 4,
102 --> 4,
103 --> 5,
104 --> 5,
105 --> 3,
106 --> 6,
107 --> 7,
108 --> 4,
109 --> 4,
110 --> 4,
111 --> 3,
112 --> 6,
113 --> 8,
114 --> 5,
115 --> 6,
116 --> 6,
117 --> 7,
118 --> 4,
119 --> 3,
120 --> 3,
121 --> 4,
122 --> 5,
123 --> 8,
124 --> 3
)
letting prerequisite be relation (
(34,39),
(32,40),
(23,41),
(7,42),
(1,43),
(27,44),
(38,45),
(6,46),
(12,47),
(4,48),
(14,49),
(9,50),
(11,51),
(29,52),
(5,53),
(19,54),
(13,55),
(9,56),
(21,57),
(9,58),
(17,59),
(14,60),
(19,61),
(31,62),
(24,63),
(28,64),
(34,65),
(19,66),
(15,67),
(14,68),
(34,69),
(11,70),
(23,71),
(10,72),
(29,73),
(23,74),
(12,75),
(26,76),
(5,77),
(11,78),
(16,79),
(28,80),
(10,81),
(34,82),
(14,83),
(3,84),
(27,85),
(28,86),
(34,87),
(28,88),
(29,89),
(16,90),
(6,91),
(57,92),
(78,93),
(76,94),
(50,95),
(46,96),
(49,97),
(72,98),
(68,99),
(73,100),
(72,101),
(73,102),
(56,103),
(61,104),
(70,105),
(68,106),
(67,107),
(56,108),
(77,109),
(72,110),
(57,111),
(64,112),
(59,113),
(81,114),
(44,115),
(72,116),
(66,117),
(55,118),
(68,119),
(49,120),
(72,121),
(56,122),
(91,123),
(46,124),
(72,119),
(34,88),
(15,80),
(57,95),
(17,58),
(62,113),
(4,88),
(62,100),
(14,58),
(35,47),
(16,48),
(24,55),
(71,112),
(44,122),
(13,69),
(59,121),
(66,95),
(60,110),
(61,105),
(3,76),
(19,86),
(6,53),
(90,114),
(30,67),
(35,63),
(77,113),
(47,111),
(14,52),
(12,50),
(51,108),
(58,121),
(24,51),
(91,110),
(83,121),
(8,56),
(36,79),
(90,97),
(82,117),
(43,117),
(69,123),
(6,55),
(9,79),
(5,60),
(8,85),
(87,122),
(61,122),
(27,59),
(11,85),
(38,67),
(79,120),
(82,102),
(5,43),
(84,93),
(27,83),
(35,83),
(87,111),
(10,46),
(25,69),
(4,78),
(27,88),
(50,93),
(19,41),
(26,46),
(46,94),
(7,89),
(64,109),
(18,88),
(89,107),
(6,74),
(22,69),
(23,81),
(60,114),
(15,72),
(2,87),
(66,118),
(24,53),
(2,73),
(11,77),
(31,89),
(89,114),
(29,69),
(39,121),
(17,65),
(35,65),
(80,95),
(36,70),
(86,96),
(55,114),
(37,81),
(51,106),
(44,92),
(70,119),
(38,42),
(34,58),
(14,44),
(12,52),
(52,94),
(64,113),
(68,103),
(19,78),
(3,87),
(14,71),
(12,64),
(61,124),
(24,58),
(76,114),
(33,40),
(41,119),
(26,90),
(51,105),
(91,99),
(34,76),
(62,99),
(31,77),
(51,119),
(35,77),
(91,114),
(90,96),
(66,111),
(57,115),
(21,80),
(70,107),
(40,109),
(5,42),
(12,60),
(90,102),
(17,68),
(39,113),
(74,114),
(33,82),
(21,50),
(25,52),
(42,118),
(2,85),
(25,79),
(27,74),
(65,120),
(16,62),
(83,94),
(70,93),
(13,85),
(24,84),
(10,78),
(24,71),
(41,120),
(74,94),
(74,121),
(38,57),
(43,104),
(55,96),
(63,104),
(57,121),
(2,80),
(51,98),
(54,116),
(7,45),
(20,80),
(59,122),
(28,77),
(57,97),
(49,92),
(13,63),
(38,74),
(87,96),
(43,97),
(82,100),
(88,110),
(10,50),
(66,107),
(66,94),
(71,114),
(88,96),
(75,94),
(29,49),
(32,49)
)

